Version identifier: 22.1.0.0 | 2022-03-09 | 1a383f8ce
CPXPARAM_Threads                                 1
CPXPARAM_MIP_Strategy_VariableSelect             3
CPXPARAM_TimeLimit                               600
Tried aggregator 1 time.
Reduced MIP has 1225 rows, 7000 columns, and 58248 nonzeros.
Reduced MIP has 6000 binaries, 1000 generals, 0 SOSs, and 0 indicators.
Presolve time = 0.03 sec. (23.07 ticks)
Found incumbent of value 0.978000 after 0.08 sec. (57.91 ticks)
Probing time = 0.01 sec. (6.78 ticks)
Tried aggregator 1 time.
Detecting symmetries...
Reduced MIP has 1225 rows, 7000 columns, and 58248 nonzeros.
Reduced MIP has 6000 binaries, 1000 generals, 0 SOSs, and 0 indicators.
Presolve time = 0.04 sec. (28.49 ticks)
Probing time = 0.01 sec. (6.78 ticks)
Clique table members: 206.
MIP emphasis: balance optimality and feasibility.
MIP search method: dynamic search.
Parallel mode: none, using 1 thread.
Root relaxation solution time = 0.65 sec. (706.89 ticks)

        Nodes                                         Cuts/
   Node  Left     Objective  IInf  Best Integer    Best Bound    ItCnt     Gap

*     0+    0                            0.9780        0.0000           100.00%
      0     0        0.0000  1164        0.9780        0.0000     3394  100.00%
      0     0        0.0000   310        0.9780   ZeroHalf: 1     3792  100.00%
      0     0        0.0000   893        0.9780      Cuts: 68     7201  100.00%
      0     0        0.0000   331        0.9780   ZeroHalf: 1     7307  100.00%
*     0+    0                            0.2520        0.0000           100.00%
      0     0        0.0000   438        0.2520  ZeroHalf: 29     9442  100.00%
*     0+    0                            0.2490        0.0000           100.00%
*     0+    0                            0.0610        0.0000           100.00%
*     0+    0                            0.0600        0.0000           100.00%
      0     0  -1.00000e+75     0        0.0600        0.0000     9442  100.00%
Detecting symmetries...
      0     2        0.0000   240        0.0600        0.0000     9442  100.00%
Elapsed time = 13.14 sec. (14465.70 ticks, tree = 0.01 MB, solutions = 5)
      1     3        0.0000   348        0.0600        0.0000    15767  100.00%
      2     4        0.0000  1156        0.0600        0.0000    20440  100.00%
      3     5        0.0000  1061        0.0600        0.0000    25215  100.00%
      4     6        0.0000   344        0.0600        0.0000    25496  100.00%
      5     7        0.0000   413        0.0600        0.0000    26823  100.00%
      6     8        0.0000   327        0.0600        0.0000    28804  100.00%
      7     9        0.0000   307        0.0600        0.0000    30168  100.00%
      8    10        0.0000   258        0.0600        0.0000    32807  100.00%
      9    11        0.0000   507        0.0600        0.0000    35249  100.00%
     11    13        0.0000   237        0.0600        0.0000    38180  100.00%
Elapsed time = 22.34 sec. (24454.04 ticks, tree = 0.10 MB, solutions = 5)
     13    15        0.0000   335        0.0600        0.0000    41271  100.00%
     15    17        0.0000   430        0.0600        0.0000    47407  100.00%
     17    19        0.0000   257        0.0600        0.0000    54333  100.00%
     19    21        0.0000   254        0.0600        0.0000    57360  100.00%
     21    23        0.0000   232        0.0600        0.0000    60848  100.00%
     24    26        0.0000   474        0.0600        0.0000    68347  100.00%
     27    29        0.0000   247        0.0600        0.0000    70394  100.00%
     29    31        0.0000   331        0.0600        0.0000    73719  100.00%
     32    34        0.0000   337        0.0600        0.0000    76146  100.00%
     34    36        0.0000   347        0.0600        0.0000    78999  100.00%
Elapsed time = 35.72 sec. (38729.60 ticks, tree = 0.31 MB, solutions = 5)
     37    39        0.0000   361        0.0600        0.0000    82637  100.00%
     40    42        0.0000   330        0.0600        0.0000    87108  100.00%
     42    44        0.0000   333        0.0600        0.0000    89706  100.00%
     44    46        0.0000   253        0.0600        0.0000    94417  100.00%
     46    48       -0.0000   211        0.0600        0.0000    99100  100.00%
     48    50        0.0000   247        0.0600        0.0000   103540  100.00%
     50    52       -0.0000   263        0.0600        0.0000   106131  100.00%
     52    54       -0.0000   232        0.0600        0.0000   111710  100.00%
     55    57        0.0000   392        0.0600        0.0000   115802  100.00%
     62    64        0.0010   336        0.0600        0.0000   117044  100.00%
Elapsed time = 49.81 sec. (53107.79 ticks, tree = 0.60 MB, solutions = 5)
     69    71        0.0001   344        0.0600        0.0000   117649  100.00%
     76    78        0.0010   347        0.0600        0.0000   118274  100.00%
     82    84        0.0010   445        0.0600        0.0000   119783  100.00%
     87    89        0.0001   359        0.0600        0.0000   120664  100.00%
     92    94        0.0001   436        0.0600        0.0000   121403  100.00%
     96    98        0.0002   476        0.0600        0.0000   123489  100.00%
*   100+  100                            0.0180        0.0000           100.00%
    100   102        0.0002   510        0.0180        0.0000   124533  100.00%
    105   107        0.0005   495        0.0180        0.0000   127016  100.00%
    109   111        0.0005   440        0.0180        0.0000   128627  100.00%
    112   114        0.0006   454        0.0180        0.0000   129799  100.00%
Elapsed time = 60.99 sec. (64371.90 ticks, tree = 1.20 MB, solutions = 6)
    116   118        0.0014   431        0.0180        0.0000   132048  100.00%
    120   122        0.0007   508        0.0180        0.0000   133295  100.00%
    124   126        0.0020   241        0.0180        0.0000   134811  100.00%
    129   131        0.0008   386        0.0180        0.0000   135683  100.00%
    133   135        0.0010   478        0.0180        0.0000   139470  100.00%
    138   140        0.0014   363        0.0180        0.0000   140489  100.00%
    143   145        0.0010   339        0.0180        0.0000   142530  100.00%
    147   149        0.0011   440        0.0180        0.0000   144994  100.00%
    150   152        0.0011   419        0.0180        0.0000   146144  100.00%
    155   157        0.0012   481        0.0180        0.0000   147271  100.00%
Elapsed time = 71.93 sec. (75364.25 ticks, tree = 1.73 MB, solutions = 6)
    159   161        0.0012   451        0.0180        0.0000   149332  100.00%
    163   165        0.0017   468        0.0180        0.0000   150979  100.00%
    167   169        0.0015   402        0.0180        0.0000   152398  100.00%
    171   173        0.0015   439        0.0180        0.0000   154486  100.00%
    176   178        0.0022   391        0.0180        0.0000   157059  100.00%
    181   183        0.0017   432        0.0180        0.0000   158058  100.00%
    186   188        0.0017   426        0.0180        0.0000   159143  100.00%
    191   193        0.0020   367        0.0180        0.0000   160622  100.00%
    196   198        0.0022   441        0.0180        0.0000   162415  100.00%
    200   202        0.0030   280        0.0180        0.0000   164076  100.00%
Elapsed time = 83.07 sec. (86323.47 ticks, tree = 2.30 MB, solutions = 6)
    205   207        0.0037   350        0.0180        0.0000   166295  100.00%
    210   212        0.0035   293        0.0180        0.0000   169525  100.00%
    215   217        0.0047   295        0.0180        0.0000   171713  100.00%
    220   222        0.0043   302        0.0180        0.0000   173291  100.00%
    225   227        0.0047   318        0.0180        0.0000   175427  100.00%
*   230+  230                            0.0130        0.0000           100.00%
    230   232        0.0050   143        0.0130        0.0000   177625  100.00%
    234   236        0.0053   233        0.0130        0.0000   180959  100.00%
    238   240        0.0065   214        0.0130        0.0000   183350  100.00%
    243   245        0.0067   291        0.0130        0.0000   185035  100.00%
    248   250        0.0067   356        0.0130        0.0000   186587  100.00%
Elapsed time = 94.89 sec. (97857.31 ticks, tree = 2.88 MB, solutions = 7)
    252   254        0.0080   189        0.0130        0.0000   188747  100.00%
    259   261        0.0100    46        0.0130        0.0000   190205  100.00%
*   263   263      integral     0        0.0110        0.0000   190651  100.00%
*   265   256      integral     0        0.0100        0.0000   190773  100.00%
    266   256        0.0000   540        0.0100        0.0000   196728  100.00%
    270   260        0.0010   344        0.0100        0.0000   197753  100.00%
    275   265        0.0001   439        0.0100        0.0000   198804  100.00%
    281   271        0.0002   454        0.0100        0.0000   199314  100.00%
    286   276        0.0003   418        0.0100        0.0000   200358  100.00%
    292   282        0.0003   447        0.0100        0.0000   200770  100.00%
    296   286        0.0005   551        0.0100        0.0000   202997  100.00%
    300   290        0.0006   525        0.0100        0.0000   204726  100.00%
Elapsed time = 107.85 sec. (110906.21 ticks, tree = 3.38 MB, solutions = 9)
    304   294        0.0006   527        0.0100        0.0000   206323  100.00%
    309   299        0.0006   536        0.0100        0.0000   207822  100.00%
    313   303        0.0006   465        0.0100        0.0000   209692  100.00%
    316   306        0.0006   488        0.0100        0.0000   212489  100.00%
    321   311        0.0006   504        0.0100        0.0000   213184  100.00%
    325   315        0.0006   515        0.0100        0.0000   214932  100.00%
    329   319        0.0006   369        0.0100        0.0000   216961  100.00%
    333   323        0.0020   299        0.0100        0.0000   219309  100.00%
    337   327        0.0010   450        0.0100        0.0000   221400  100.00%
    342   332        0.0010   458        0.0100        0.0000   221839  100.00%
Elapsed time = 118.62 sec. (121626.07 ticks, tree = 3.90 MB, solutions = 9)
    346   336        0.0017   245        0.0100        0.0000   223877  100.00%
    350   340        0.0017   295        0.0100        0.0000   225251  100.00%
    355   345        0.0024   245        0.0100        0.0000   228399  100.00%
    359   349        0.0030   287        0.0100        0.0000   230393  100.00%
    362   352        0.0031   266        0.0100        0.0000   233292  100.00%
*   365+  350                            0.0090        0.0000           100.00%
    366   353        0.0030   260        0.0090        0.0000   235216  100.00%
    370   357        0.0033   510        0.0090        0.0000   239561  100.00%
    374   361        0.0032   279        0.0090        0.0000   242975  100.00%
    378   365        0.0030   211        0.0090        0.0000   245959  100.00%
    390   377        0.0047   211        0.0090        0.0000   257684  100.00%
Elapsed time = 132.98 sec. (135792.42 ticks, tree = 4.46 MB, solutions = 10)
    407   393        0.0075   161        0.0090        0.0000   265390  100.00%
    431   397        0.0000   354        0.0090        0.0000   273432  100.00%
    437   403        0.0000   600        0.0090        0.0000   282018  100.00%
    446   412       -0.0000   524        0.0090        0.0000   286546  100.00%
    458   424       -0.0000   602        0.0090        0.0000   292210  100.00%
    467   433       -0.0000   535        0.0090        0.0000   300666  100.00%
    478   444       -0.0000   495        0.0090        0.0000   307288  100.00%
    490   456        0.0000   270        0.0090        0.0000   314984  100.00%
*   491+  434                            0.0080        0.0000           100.00%
*   491+  424                            0.0070        0.0000           100.00%
*   491+  407                            0.0060        0.0000           100.00%
*   491+  386                            0.0050        0.0000           100.00%
*   492+  342                            0.0040        0.0000           100.00%
*   492+  303                            0.0030        0.0000           100.00%
    492   305        0.0000   295        0.0030        0.0000   319580  100.00%
    496   309        0.0000   509        0.0030        0.0000   325644  100.00%
Elapsed time = 174.78 sec. (176631.91 ticks, tree = 3.62 MB, solutions = 16)
    504   317        0.0000   303        0.0030        0.0000   334848  100.00%
    514   327        0.0000   277        0.0030        0.0000   342310  100.00%
    525   338        0.0000   512        0.0030        0.0000   350342  100.00%
    544   357        0.0001   556        0.0030        0.0000   351578  100.00%
    560   373        0.0004   392        0.0030        0.0000   354433  100.00%
    580   393        0.0005   399        0.0030        0.0000   355729  100.00%
    601   413        0.0006   448        0.0030        0.0000   357868  100.00%

Performing restart 1

Repeating presolve.
Tried aggregator 1 time.
MIP Presolve modified 67248 coefficients.
Reduced MIP has 1225 rows, 7000 columns, and 42328 nonzeros.
Reduced MIP has 6002 binaries, 998 generals, 0 SOSs, and 0 indicators.
Presolve time = 0.07 sec. (72.46 ticks)
Tried aggregator 1 time.
Reduced MIP has 1225 rows, 7000 columns, and 42328 nonzeros.
Reduced MIP has 6002 binaries, 998 generals, 0 SOSs, and 0 indicators.
Presolve time = 0.03 sec. (22.79 ticks)
Represolve time = 0.29 sec. (211.54 ticks)
    602     0        0.0000   533        0.0030   ZeroHalf: 3   364115  100.00%
    602     0        0.0000   434        0.0030   ZeroHalf: 1   364711  100.00%
    602     0        0.0000   486        0.0030     Cuts: 129   368807  100.00%
    602     2        0.0000   413        0.0030        0.0000   368807  100.00%
    605     5        0.0000  1036        0.0030        0.0000   383646  100.00%
    611    11        0.0000   489        0.0030        0.0000   393743  100.00%
Elapsed time = 230.20 sec. (233954.31 ticks, tree = 0.06 MB, solutions = 16)
    619    19        0.0000   650        0.0030        0.0000   405241  100.00%
    626    26        0.0000   580        0.0030        0.0000   414103  100.00%
    634    34       -0.0000   248        0.0030        0.0000   429573  100.00%
    641    41        0.0000   274        0.0030        0.0000   440638  100.00%
    646    46       -0.0000   231        0.0030        0.0000   450483  100.00%
    651    51        0.0000   623        0.0030        0.0000   465991  100.00%
    656    56        0.0000   471        0.0030        0.0000   480807  100.00%
    663    63        0.0000   603        0.0030        0.0000   491423  100.00%
    672    72        0.0003   394        0.0030        0.0000   504427  100.00%
    680    80        0.0010   279        0.0030        0.0000   518840  100.00%
Elapsed time = 272.39 sec. (277574.57 ticks, tree = 0.59 MB, solutions = 16)
    688    88        0.0010   230        0.0030        0.0000   535987  100.00%
    698    98        0.0010   207        0.0030        0.0000   548805  100.00%
    702   101        0.0011   358        0.0030        0.0000   555342  100.00%
    714   113        0.0010   423        0.0030        0.0000   566821  100.00%
    726   125        0.0013   378        0.0030        0.0000   577587  100.00%
    748   132       -0.0000   279        0.0030        0.0000   587311  100.00%
    755   139        0.0000   358        0.0030        0.0000   597378  100.00%
    762   146        0.0001   560        0.0030        0.0000   606792  100.00%
    771   155        0.0010   345        0.0030        0.0000   618623  100.00%
    779   163        0.0010   369        0.0030        0.0000   630352  100.00%
Elapsed time = 325.60 sec. (328978.44 ticks, tree = 1.54 MB, solutions = 16)
    793   177        0.0014   338        0.0030        0.0000   638168  100.00%
    808   190        0.0020   130        0.0030        0.0000   648462  100.00%
    825   196        0.0020   153        0.0030        0.0000   661489  100.00%
    834   203        0.0000   257        0.0030        0.0000   669046  100.00%
    845   214        0.0000   225        0.0030        0.0000   674288  100.00%
    853   222       -0.0000   425        0.0030        0.0000   682008  100.00%
    865   234       -0.0000   369        0.0030        0.0000   686618  100.00%
    882   251       -0.0000   336        0.0030        0.0000   688743  100.00%
    893   262       -0.0000   269        0.0030        0.0000   697113  100.00%
    906   275        0.0000   267        0.0030        0.0000   703662  100.00%
Elapsed time = 366.76 sec. (369798.85 ticks, tree = 2.95 MB, solutions = 16)
    921   290        0.0002   455        0.0030        0.0000   709597  100.00%
    933   302        0.0003   486        0.0030        0.0000   711909  100.00%
    948   317        0.0004   500        0.0030        0.0000   715299  100.00%
    963   332        0.0005   552        0.0030        0.0000   718266  100.00%
    976   345        0.0007   484        0.0030        0.0000   724890  100.00%
    993   361        0.0008   452        0.0030        0.0000   728424  100.00%
   1006   372        0.0000   349        0.0030        0.0000   734937  100.00%
   1017   383       -0.0000   429        0.0030        0.0000   741592  100.00%
   1025   391        0.0000   373        0.0030        0.0000   750145  100.00%
   1042   408        0.0001   417        0.0030        0.0000   753198  100.00%
Elapsed time = 406.84 sec. (409588.55 ticks, tree = 4.64 MB, solutions = 16)
   1058   424        0.0004   457        0.0030        0.0000   758399  100.00%
   1076   442        0.0004   519        0.0030        0.0000   760261  100.00%
   1093   459        0.0004   564        0.0030        0.0000   761484  100.00%
   1113   479        0.0005   579        0.0030        0.0000   762522  100.00%
   1126   492        0.0008   449        0.0030        0.0000   766695  100.00%
   1142   504        0.0008   422        0.0030        0.0000   769807  100.00%
   1158   517        0.0010   449        0.0030        0.0000   773670  100.00%
   1174   531        0.0010   537        0.0030        0.0000   777388  100.00%
   1187   543        0.0010   658        0.0030        0.0000   784840  100.00%
   1202   556        0.0012   577        0.0030        0.0000   788868  100.00%
Elapsed time = 446.91 sec. (448631.92 ticks, tree = 5.30 MB, solutions = 16)
   1208   562       -0.0000   576        0.0030        0.0000   795829  100.00%
   1219   573       -0.0000   365        0.0030        0.0000   801382  100.00%
   1228   582        0.0003   361        0.0030        0.0000   810948  100.00%
   1242   596        0.0003   506        0.0030        0.0000   813411  100.00%
   1260   614        0.0003   488        0.0030        0.0000   814947  100.00%
   1277   631        0.0003   475        0.0030        0.0000   817821  100.00%
   1291   645        0.0004   504        0.0030        0.0000   821281  100.00%
   1307   661        0.0005   469        0.0030        0.0000   823680  100.00%
   1325   679        0.0007   510        0.0030        0.0000   825898  100.00%
   1338   692        0.0008   671        0.0030        0.0000   831632  100.00%
Elapsed time = 487.19 sec. (488398.48 ticks, tree = 5.72 MB, solutions = 16)
   1352   705        0.0012   580        0.0030        0.0000   835841  100.00%
   1369   721        0.0012   641        0.0030        0.0000   838042  100.00%
   1386   737        0.0012   459        0.0030        0.0000   842061  100.00%
   1401   750        0.0015   550        0.0030        0.0000   848489  100.00%
   1410   758       -0.0000   449        0.0030        0.0000   856972  100.00%
   1417   765       -0.0000   411        0.0030        0.0000   870665  100.00%
   1426   774        0.0001   560        0.0030        0.0000   883307  100.00%
   1436   784        0.0010   395        0.0030        0.0000   896320  100.00%
   1442   790        0.0010   380        0.0030        0.0000   909478  100.00%
   1451   799        0.0020   313        0.0030        0.0000   923084  100.00%
Elapsed time = 528.88 sec. (529243.24 ticks, tree = 6.45 MB, solutions = 16)
   1468   809       -0.0000   279        0.0030        0.0000   939246  100.00%
   1477   818        0.0000   459        0.0030        0.0000   943571  100.00%
   1484   825       -0.0000   384        0.0030        0.0000   950994  100.00%
   1493   834        0.0000   358        0.0030        0.0000   960181  100.00%
Starting limited solution polishing.
   1502   843        0.0001   366        0.0030        0.0000   968270  100.00%
   1517   858        0.0001   363        0.0030        0.0000   969793  100.00%
   1539   880        0.0001   432        0.0030        0.0000   970572  100.00%
   1557   898        0.0001   375        0.0030        0.0000   972304  100.00%
   1572   913        0.0001   358        0.0030        0.0000   975864  100.00%
   1586   927        0.0001   436        0.0030        0.0000   979739  100.00%
Elapsed time = 569.65 sec. (569265.93 ticks, tree = 8.07 MB, solutions = 16)
   1602   943        0.0002   379        0.0030        0.0000   984558  100.00%
   1618   959        0.0005   446        0.0030        0.0000   987581  100.00%
   1635   976        0.0006   494        0.0030        0.0000   990652  100.00%
   1648   989        0.0007   460        0.0030        0.0000   997477  100.00%
   1667  1004        0.0008   457        0.0030        0.0000  1000610  100.00%
   1685  1017        0.0008   387        0.0030        0.0000  1004031  100.00%

Zero-half cuts applied:  10
Gomory fractional cuts applied:  1

Root node processing (before b&c):
  Real time             =   13.08 sec. (14394.83 ticks)
Sequential b&c:
  Real time             =  586.92 sec. (584121.35 ticks)
                          ------------
Total (root+branch&cut) =  600.01 sec. (598516.18 ticks)
Primal number of violations:	0.003
Dual number of violations:	0
Status:	Feasible
Time:	599.96
Sequence:
	23
	8
	16
	10
	18
	1
	21
	7
	15
	12
	7
	14
	12
	15
	7
	10
	16
	7
	22
	1
	18
	12
	14
	8
	10
	14
	7
	10
	14
	9
	12
	14
	7
	10
	14
	9
	18
	5
	18
	7
	17
	7
	18
	5
	18
	9
	3
	7
	18
	3
	7
	15
	12
	7
	16
	10
	18
	2
	21
	7
	16
	10
	18
	0
	23
	7
	14
	21
	8
	14
	10
	18
	1
	24
	7
	14
	10
	18
	0
	21
	7
	14
	10
	20
	1
	21
	7
	14
	13
	7
	16
	10
	18
	2
	21
	7
	14
	10
	19
	1
	23
	7
	14
	11
	7
	14
	12
	18
	2
	21
	7
	14
	10
	20
	1
	21
	7
	14
	9
	21
	16
	7
	21
	16
	8
	12
	14
	7
	21
	1
	18
	13
	14
	7
	21
	1
	19
	12
	14
	7
	21
	1
	20
	10
	14
	7
	23
	2
	18
	10
	14
	7
	18
	3
	7
	20
	3
	18
	7
	5
	8
	18
	5
	7
	18
	5
	19
	7
	3
	7
	18
	4
	18
	7
	16
	10
	16
	7
	18
	6
	7
	18
	3
	7
	19
	3
	18
	7
	5
	9
	18
	3
	18
	7
	15
	12
	7
	14
	12
	19
